n_machines = 3;
n_resources = 5;
n_jobs = 100;
horizon = 4472;
LB = 1490;
n_jobs_per_resource = [20, 20, 20, 20, 20];
duration = [12, 24, 9, 21, 7, 96, 93, 4, 22, 45, 12, 89, 59, 64, 77, 29, 15, 41, 17, 28, 84, 31, 21, 44, 87, 87, 75, 90, 35, 85, 14, 69, 90, 20, 39, 26, 91, 53, 10, 42, 41, 26, 2, 18, 27, 82, 18, 28, 31, 29, 41, 8, 38, 66, 73, 2, 75, 36, 56, 48, 57, 40, 25, 78, 36, 26, 28, 59, 83, 2, 6, 75, 25, 17, 18, 92, 1, 71, 90, 60, 82, 31, 88, 6, 12, 38, 81, 96, 16, 5, 79, 99, 53, 88, 21, 88, 31, 29, 18, 20]